data/solutions/recovery/wellformed/moderate/binding/wellformed_moderate_instance53/27.sol
Elapsed time: 0.01
Upper bound: 4380.0
Planning weighted value: 133718.0
C[0]=4380.0
C[1]=4348.0
C[2]=4138.0
C[3]=3865.0
C[4]=3608.0
y[0]=0
y[1]=4
y[2]=4
y[3]=1
y[4]=1
y[5]=0
y[6]=3
y[7]=0
y[8]=3
y[9]=0
y[10]=3
y[11]=2
y[12]=4
y[13]=2
y[14]=4
y[15]=0
y[16]=2
y[17]=3
y[18]=1
y[19]=4
